TERM = { '.', s0, s1, s10, s11, s2, s9, s12};
null = '.';
s = 11;
n = 9;
ZEROARYOP = { ZEROARY_dummy };
zeroout = [ null ];
zerogas = [ 0 ];
zerosz =  [ 0 ];
zerolb =  [ 0 ];
zeroub =  [ 0 ];
UNARYOP = { UNARY_dummy };
unin =  [ null ];
unout = [ null ];
ungas = [ 0 ];
unsz =  [ 0 ];
unlb =  [ 0 ];
unub =  [ 0 ];
BINARYOP = { SUB_0 };
binin1 = [s12 ];
binin2 = [s2 ];
binout = [s10 ];
bincomm = [false ];
bingas = [3 ];
binsz = [1 ];
binlb = [ 2 ];
binub = [ 10 ];
PUSHOP = { 'PUSH [tag]_1', 'PUSH [tag]_0', PUSH_0 };
pushout = [ s9, s11, s12 ];
pushgas = [ 3, 3, 3 ];
pushsz = [ 5, 5, 2 ];
pushlb = [ 1, 1, 1 ];
pushub = [ 11, 10, 10 ];
STOROP = { STORE_dummy };
storin1 =  [ null ];
storin2 =  [ null ];
storlb =  [ 0 ];
storub =  [ 0 ];
startstack = [ s0, s1, s2 ];
endstack = [ s9, s10, s12, s0, s2, s11, s12, s0, s2 ];
before = [  ];
after = [  ];
